0 65 
1 69 
2 70 
3 70 
4 69 
5 68 
6 68 
7 70 
8 70 
9 68 
10 65 
11 65 
12 65 
13 64 
14 65 
15 64 
16 62 
17 60 
18 60 
19 59 
20 58 
21 58 
22 56 
23 55 
24 54 
25 53 
26 51 
27 49 
28 49 
29 49 
30 48 
31 48 
32 48 
33 45 
34 43 
35 38 
36 37 
37 38 
38 35 
39 34 
40 34 
41 34 
42 32 
43 37 
44 37 
45 38 
46 36 
47 36 
48 35 
49 34 
50 32 
51 28 
52 28 
53 26 
54 23 
55 20 
56 19 
57 18 
58 20 
59 20 
60 22 
61 22 
62 19 
63 17 
64 15 
65 15 
66 14 
67 15 
68 14 
69 14 
70 13 
71 14 
72 14 
73 14 
74 14 
75 14 
76 13 
77 12 
78 13 
79 12 
80 11 
81 12 
82 10 
83 10 
84 10 
85 9 
86 9 
87 10 
88 8 
89 6 
90 6 
91 5 
92 4 
93 3 
94 2 
95 2 
96 2 
97 1 
98 0 
99 0 

